100
1000 1000
663 782
122 901
141 272
938 627
275 119
540 258
456 775
560 431
705 713
342 775
393 858
17 24
327 105
464 824
25 690
290 519
766 494
916 996
263 803
643 622
424 240
869 168
959 499
871 463
294 442
794 910
875 206
907 760
747 721
143 613
598 346
729 231
366 45
137 792
293 443
609 695
20 6
672 122
230 597
802 724
292 985
969 594
801 747
477 349
735 273
149 777
742 248
261 529
641 586
737 85
932 32
482 344
61 543
428 73
675 600
974 38
919 730
362 553
370 244
559 571
766 403
359 614
673 643
965 399
63 547
442 817
598 890
207 377
646 474
777 743
850 730
54 899
399 501
784 964
293 587
732 140
862 514
546 448
544 857
831 686
960 50
961 714
941 27
351 314
384 982
228 970
189 187
441 414
967 822
160 37
985 8
3 367
692 243
913 806
124 998
22 367
432 114
176 105
625 720
4 941
